55
1 0 44
2 0 13
2 1 47
3 0 25
3 1 3
3 2 32
4 0 15
4 1 38
4 2 30
4 3 18
5 0 11
5 1 13
5 2 10
5 3 21
5 4 2
6 0 35
6 1 2
6 2 24
6 3 9
6 4 42
6 5 5
7 0 9
7 1 38
7 2 15
7 3 1
7 4 38
7 5 16
7 6 9
8 0 20
8 1 12
8 2 18
8 3 37
8 4 38
8 5 30
8 6 30
8 7 45
9 0 10
9 1 39
9 2 35
9 3 35
9 4 2
9 5 5
9 6 38
9 7 33
9 8 47
10 0 32
10 1 22
10 2 4
10 3 37
10 4 31
10 5 42
10 6 27
10 7 10
10 8 22
10 9 19
11 0 2
11 1 39
11 2 22
11 3 5
11 4 11
11 5 3
11 6 30
11 7 39
11 8 35
11 9 36
11 10 38
12 0 38
12 1 26
12 2 21
12 3 45
12 4 11
12 5 38
12 6 26
12 7 9
12 8 28
12 9 38
12 10 33
12 11 41
13 0 12
13 1 19
13 2 35
13 3 27
13 4 40
13 5 11
13 6 2
13 7 10
13 8 18
13 9 16
13 10 6
13 11 12
13 12 8
14 0 14
14 1 45
14 2 43
14 3 41
14 4 36
14 5 11
14 6 41
14 7 18
14 8 17
14 9 22
14 10 42
14 11 16
14 12 36
14 13 3
15 0 6
15 1 18
15 2 41
15 3 1
15 4 9
15 5 26
15 6 22
15 7 35
15 8 24
15 9 22
15 10 10
15 11 23
15 12 4
15 13 46
15 14 20
16 0 26
16 1 40
16 2 33
16 3 38
16 4 32
16 5 22
16 6 22
16 7 4
16 8 28
16 9 42
16 10 30
16 11 1
16 12 3
16 13 16
16 14 36
16 15 32
17 0 46
17 1 22
17 2 4
17 3 19
17 4 45
17 5 21
17 6 1
17 7 19
17 8 39
17 9 47
17 10 11
17 11 26
17 12 39
17 13 2
17 14 13
17 15 34
17 16 22
18 0 23
18 1 38
18 2 16
18 3 10
18 4 35
18 5 41
18 6 6
18 7 28
18 8 31
18 9 32
18 10 44
18 11 28
18 12 37
18 13 40
18 14 42
18 15 36
18 16 39
18 17 18
19 0 1
19 1 6
19 2 47
19 3 16
19 4 24
19 5 28
19 6 41
19 7 9
19 8 41
19 9 7
19 10 15
19 11 32
19 12 45
19 13 20
19 14 40
19 15 47
19 16 24
19 17 18
19 18 10
20 0 46
20 1 26
20 2 38
20 3 33
20 4 36
20 5 44
20 6 17
20 7 20
20 8 45
20 9 43
20 10 9
20 11 35
20 12 45
20 13 17
20 14 9
20 15 26
20 16 22
20 17 12
20 18 29
20 19 5
21 0 13
21 1 14
21 2 27
21 3 13
21 4 17
21 5 41
21 6 28
21 7 2
21 8 25
21 9 45
21 10 16
21 11 7
21 12 35
21 13 6
21 14 45
21 15 9
21 16 41
21 17 20
21 18 3
21 19 47
21 20 40
22 0 14
22 1 42
22 2 27
22 3 46
22 4 46
22 5 14
22 6 11
22 7 11
22 8 6
22 9 42
22 10 34
22 11 34
22 12 17
22 13 42
22 14 18
22 15 26
22 16 16
22 17 6
22 18 22
22 19 40
22 20 8
22 21 39
23 0 30
23 1 29
23 2 28
23 3 18
23 4 37
23 5 43
23 6 3
23 7 5
23 8 41
23 9 5
23 10 28
23 11 29
23 12 23
23 13 23
23 14 14
23 15 22
23 16 16
23 17 27
23 18 29
23 19 10
23 20 37
23 21 26
23 22 44
24 0 41
24 1 46
24 2 2
24 3 2
24 4 25
24 5 33
24 6 44
24 7 20
24 8 33
24 9 21
24 10 44
24 11 27
24 12 18
24 13 28
24 14 13
24 15 39
24 16 7
24 17 33
24 18 27
24 19 10
24 20 37
24 21 11
24 22 39
24 23 20
25 0 47
25 1 15
25 2 1
25 3 46
25 4 25
25 5 7
25 6 40
25 7 3
25 8 27
25 9 16
25 10 26
25 11 28
25 12 8
25 13 21
25 14 39
25 15 33
25 16 15
25 17 45
25 18 14
25 19 25
25 20 34
25 21 1
25 22 8
25 23 40
25 24 18
26 0 26
26 1 34
26 2 16
26 3 36
26 4 8
26 5 1
26 6 8
26 7 40
26 8 32
26 9 7
26 10 16
26 11 21
26 12 24
26 13 15
26 14 43
26 15 43
26 16 25
26 17 7
26 18 12
26 19 28
26 20 20
26 21 42
26 22 27
26 23 42
26 24 2
26 25 2
27 0 29
27 1 43
27 2 35
27 3 3
27 4 17
27 5 1
27 6 31
27 7 2
27 8 42
27 9 20
27 10 5
27 11 9
27 12 42
27 13 4
27 14 43
27 15 40
27 16 18
27 17 27
27 18 12
27 19 25
27 20 35
27 21 47
27 22 11
27 23 31
27 24 1
27 25 46
27 26 11
28 0 16
28 1 7
28 2 43
28 3 45
28 4 25
28 5 29
28 6 36
28 7 28
28 8 4
28 9 26
28 10 29
28 11 21
28 12 25
28 13 15
28 14 16
28 15 10
28 16 44
28 17 18
28 18 14
28 19 14
28 20 42
28 21 21
28 22 43
28 23 17
28 24 23
28 25 33
28 26 23
28 27 36
29 0 1
29 1 17
29 2 25
29 3 17
29 4 26
29 5 43
29 6 29
29 7 15
29 8 33
29 9 40
29 10 31
29 11 19
29 12 17
29 13 24
29 14 27
29 15 16
29 16 46
29 17 31
29 18 19
29 19 44
29 20 37
29 21 38
29 22 43
29 23 44
29 24 8
29 25 15
29 26 17
29 27 14
29 28 41
30 0 36
30 1 5
30 2 43
30 3 37
30 4 11
30 5 40
30 6 47
30 7 26
30 8 32
30 9 15
30 10 43
30 11 19
30 12 3
30 13 47
30 14 1
30 15 27
30 16 5
30 17 24
30 18 34
30 19 23
30 20 13
30 21 5
30 22 44
30 23 28
30 24 30
30 25 35
30 26 27
30 27 14
30 28 8
30 29 47
31 0 46
31 1 29
31 2 32
31 3 43
31 4 41
31 5 20
31 6 46
31 7 20
31 8 44
31 9 17
31 10 24
31 11 40
31 12 33
31 13 34
31 14 15
31 15 30
31 16 6
31 17 9
31 18 45
31 19 28
31 20 39
31 21 39
31 22 42
31 23 46
31 24 44
31 25 44
31 26 21
31 27 12
31 28 28
31 29 39
31 30 22
32 0 25
32 1 27
32 2 8
32 3 41
32 4 41
32 5 8
32 6 39
32 7 8
32 8 46
32 9 27
32 10 20
32 11 27
32 12 45
32 13 30
32 14 28
32 15 46
32 16 15
32 17 9
32 18 47
32 19 11
32 20 5
32 21 30
32 22 37
32 23 21
32 24 1
32 25 32
32 26 22
32 27 47
32 28 3
32 29 37
32 30 36
32 31 41
33 0 36
33 1 27
33 2 45
33 3 14
33 4 5
33 5 23
33 6 31
33 7 27
33 8 38
33 9 34
33 10 2
33 11 4
33 12 34
33 13 30
33 14 45
33 15 23
33 16 46
33 17 16
33 18 22
33 19 31
33 20 31
33 21 40
33 22 34
33 23 47
33 24 1
33 25 37
33 26 22
33 27 45
33 28 15
33 29 19
33 30 45
33 31 8
33 32 44
34 0 24
34 1 38
34 2 19
34 3 18
34 4 31
34 5 33
34 6 2
34 7 18
34 8 26
34 9 34
34 10 10
34 11 44
34 12 21
34 13 18
34 14 19
34 15 11
34 16 14
34 17 5
34 18 18
34 19 36
34 20 31
34 21 39
34 22 31
34 23 5
34 24 34
34 25 2
34 26 44
34 27 3
34 28 43
34 29 24
34 30 6
34 31 5
34 32 47
34 33 18
35 0 45
35 1 24
35 2 27
35 3 20
35 4 18
35 5 26
35 6 24
35 7 29
35 8 45
35 9 26
35 10 27
35 11 17
35 12 11
35 13 35
35 14 12
35 15 1
35 16 39
35 17 6
35 18 37
35 19 28
35 20 22
35 21 1
35 22 29
35 23 34
35 24 15
35 25 35
35 26 3
35 27 6
35 28 21
35 29 31
35 30 26
35 31 21
35 32 4
35 33 35
35 34 47
36 0 12
36 1 17
36 2 2
36 3 10
36 4 45
36 5 4
36 6 2
36 7 10
36 8 33
36 9 16
36 10 31
36 11 40
36 12 5
36 13 33
36 14 7
36 15 15
36 16 11
36 17 15
36 18 28
36 19 14
36 20 37
36 21 12
36 22 24
36 23 33
36 24 28
36 25 30
36 26 30
36 27 28
36 28 22
36 29 3
36 30 8
36 31 26
36 32 46
36 33 22
36 34 41
36 35 15
37 0 19
37 1 2
37 2 40
37 3 1
37 4 47
37 5 40
37 6 47
37 7 46
37 8 29
37 9 40
37 10 11
37 11 31
37 12 3
37 13 40
37 14 5
37 15 2
37 16 30
37 17 20
37 18 31
37 19 30
37 20 7
37 21 46
37 22 6
37 23 13
37 24 39
37 25 11
37 26 7
37 27 29
37 28 13
37 29 45
37 30 35
37 31 25
37 32 22
37 33 39
37 34 37
37 35 13
37 36 47
38 0 30
38 1 4
38 2 35
38 3 24
38 4 7
38 5 12
38 6 17
38 7 41
38 8 16
38 9 36
38 10 29
38 11 13
38 12 6
38 13 3
38 14 31
38 15 44
38 16 16
38 17 34
38 18 19
38 19 19
38 20 46
38 21 33
38 22 9
38 23 46
38 24 30
38 25 20
38 26 18
38 27 45
38 28 43
38 29 17
38 30 23
38 31 1
38 32 5
38 33 42
38 34 18
38 35 43
38 36 20
38 37 46
39 0 7
39 1 20
39 2 32
39 3 2
39 4 4
39 5 31
39 6 47
39 7 28
39 8 18
39 9 14
39 10 8
39 11 43
39 12 16
39 13 40
39 14 27
39 15 41
39 16 41
39 17 28
39 18 44
39 19 9
39 20 10
39 21 15
39 22 7
39 23 15
39 24 25
39 25 18
39 26 8
39 27 23
39 28 7
39 29 18
39 30 17
39 31 19
39 32 32
39 33 37
39 34 10
39 35 4
39 36 38
39 37 5
39 38 4
40 0 19
40 1 6
40 2 15
40 3 16
40 4 23
40 5 44
40 6 4
40 7 4
40 8 11
40 9 33
40 10 29
40 11 28
40 12 10
40 13 3
40 14 7
40 15 33
40 16 45
40 17 21
40 18 34
40 19 6
40 20 22
40 21 10
40 22 23
40 23 19
40 24 11
40 25 26
40 26 36
40 27 29
40 28 9
40 29 12
40 30 35
40 31 30
40 32 24
40 33 42
40 34 5
40 35 3
40 36 44
40 37 20
40 38 30
40 39 16
41 0 11
41 1 3
41 2 47
41 3 35
41 4 46
41 5 30
41 6 22
41 7 43
41 8 25
41 9 19
41 10 24
41 11 31
41 12 15
41 13 29
41 14 4
41 15 34
41 16 10
41 17 11
41 18 14
41 19 44
41 20 7
41 21 46
41 22 41
41 23 3
41 24 4
41 25 8
41 26 16
41 27 40
41 28 40
41 29 17
41 30 3
41 31 36
41 32 26
41 33 30
41 34 24
41 35 35
41 36 30
41 37 3
41 38 8
41 39 11
41 40 35
42 0 24
42 1 20
42 2 26
42 3 40
42 4 3
42 5 38
42 6 47
42 7 30
42 8 41
42 9 41
42 10 16
42 11 29
42 12 24
42 13 18
42 14 38
42 15 41
42 16 45
42 17 24
42 18 18
42 19 15
42 20 19
42 21 18
42 22 14
42 23 30
42 24 15
42 25 9
42 26 5
42 27 25
42 28 44
42 29 25
42 30 4
42 31 1
42 32 38
42 33 33
42 34 37
42 35 27
42 36 47
42 37 21
42 38 19
42 39 30
42 40 11
42 41 44
43 0 6
43 1 29
43 2 11
43 3 10
43 4 14
43 5 30
43 6 29
43 7 22
43 8 17
43 9 19
43 10 18
43 11 24
43 12 17
43 13 44
43 14 47
43 15 36
43 16 17
43 17 22
43 18 8
43 19 22
43 20 40
43 21 1
43 22 9
43 23 29
43 24 17
43 25 7
43 26 15
43 27 14
43 28 25
43 29 31
43 30 31
43 31 12
43 32 28
43 33 43
43 34 14
43 35 32
43 36 39
43 37 25
43 38 34
43 39 35
43 40 25
43 41 21
43 42 6
44 0 25
44 1 31
44 2 24
44 3 32
44 4 44
44 5 1
44 6 10
44 7 44
44 8 47
44 9 34
44 10 47
44 11 10
44 12 39
44 13 8
44 14 35
44 15 23
44 16 32
44 17 12
44 18 43
44 19 45
44 20 20
44 21 43
44 22 17
44 23 27
44 24 41
44 25 21
44 26 24
44 27 3
44 28 1
44 29 22
44 30 26
44 31 16
44 32 13
44 33 10
44 34 13
44 35 7
44 36 45
44 37 23
44 38 40
44 39 22
44 40 35
44 41 27
44 42 12
44 43 4
45 0 39
45 1 47
45 2 23
45 3 11
45 4 12
45 5 31
45 6 30
45 7 10
45 8 7
45 9 7
45 10 18
45 11 22
45 12 8
45 13 42
45 14 37
45 15 25
45 16 21
45 17 27
45 18 45
45 19 28
45 20 30
45 21 6
45 22 21
45 23 5
45 24 43
45 25 41
45 26 10
45 27 6
45 28 6
45 29 47
45 30 21
45 31 26
45 32 16
45 33 16
45 34 39
45 35 29
45 36 21
45 37 43
45 38 30
45 39 40
45 40 35
45 41 47
45 42 16
45 43 46
45 44 25
46 0 23
46 1 6
46 2 44
46 3 7
46 4 46
46 5 21
46 6 6
46 7 44
46 8 30
46 9 46
46 10 40
46 11 8
46 12 47
46 13 14
46 14 9
46 15 1
46 16 2
46 17 6
46 18 38
46 19 34
46 20 17
46 21 45
46 22 40
46 23 42
46 24 11
46 25 30
46 26 19
46 27 23
46 28 39
46 29 45
46 30 19
46 31 47
46 32 2
46 33 19
46 34 1
46 35 27
46 36 15
46 37 36
46 38 40
46 39 19
46 40 43
46 41 46
46 42 20
46 43 37
46 44 12
46 45 31
47 0 37
47 1 45
47 2 12
47 3 1
47 4 17
47 5 17
47 6 35
47 7 13
47 8 12
47 9 37
47 10 34
47 11 33
47 12 25
47 13 4
47 14 27
47 15 31
47 16 19
47 17 46
47 18 37
47 19 40
47 20 16
47 21 41
47 22 40
47 23 47
47 24 9
47 25 29
47 26 47
47 27 3
47 28 13
47 29 43
47 30 26
47 31 36
47 32 38
47 33 29
47 34 22
47 35 24
47 36 47
47 37 3
47 38 34
47 39 33
47 40 4
47 41 15
47 42 16
47 43 29
47 44 37
47 45 47
47 46 27
48 0 6
48 1 40
48 2 38
48 3 11
48 4 27
48 5 6
48 6 20
48 7 8
48 8 1
48 9 2
48 10 36
48 11 33
48 12 38
48 13 18
48 14 10
48 15 6
48 16 24
48 17 38
48 18 13
48 19 41
48 20 1
48 21 30
48 22 25
48 23 37
48 24 7
48 25 27
48 26 6
48 27 36
48 28 15
48 29 33
48 30 41
48 31 23
48 32 26
48 33 35
48 34 1
48 35 4
48 36 44
48 37 11
48 38 3
48 39 11
48 40 40
48 41 29
48 42 9
48 43 27
48 44 6
48 45 47
48 46 10
48 47 27
49 0 24
49 1 46
49 2 6
49 3 34
49 4 21
49 5 13
49 6 33
49 7 38
49 8 40
49 9 33
49 10 29
49 11 16
49 12 14
49 13 26
49 14 1
49 15 13
49 16 5
49 17 4
49 18 38
49 19 10
49 20 44
49 21 1
49 22 31
49 23 11
49 24 6
49 25 19
49 26 34
49 27 32
49 28 32
49 29 29
49 30 37
49 31 33
49 32 29
49 33 42
49 34 34
49 35 19
49 36 24
49 37 42
49 38 8
49 39 36
49 40 42
49 41 6
49 42 18
49 43 43
49 44 47
49 45 14
49 46 35
49 47 2
49 48 16
50 0 40
50 1 22
50 2 22
50 3 30
50 4 14
50 5 19
50 6 22
50 7 21
50 8 2
50 9 7
50 10 31
50 11 13
50 12 44
50 13 24
50 14 18
50 15 10
50 16 28
50 17 19
50 18 11
50 19 10
50 20 16
50 21 28
50 22 37
50 23 24
50 24 10
50 25 33
50 26 38
50 27 12
50 28 25
50 29 35
50 30 45
50 31 30
50 32 39
50 33 34
50 34 30
50 35 27
50 36 7
50 37 14
50 38 15
50 39 36
50 40 11
50 41 25
50 42 24
50 43 16
50 44 30
50 45 5
50 46 25
50 47 34
50 48 18
50 49 32
51 0 22
51 1 9
51 2 10
51 3 5
51 4 44
51 5 26
51 6 37
51 7 39
51 8 33
51 9 30
51 10 15
51 11 26
51 12 7
51 13 26
51 14 26
51 15 10
51 16 18
51 17 7
51 18 46
51 19 22
51 20 3
51 21 43
51 22 32
51 23 32
51 24 26
51 25 12
51 26 21
51 27 37
51 28 47
51 29 43
51 30 35
51 31 30
51 32 5
51 33 10
51 34 40
51 35 36
51 36 11
51 37 40
51 38 3
51 39 22
51 40 25
51 41 42
51 42 9
51 43 46
51 44 30
51 45 9
51 46 11
51 47 38
51 48 2
51 49 1
51 50 12
52 0 32
52 1 41
52 2 40
52 3 44
52 4 25
52 5 17
52 6 34
52 7 42
52 8 35
52 9 21
52 10 20
52 11 15
52 12 16
52 13 41
52 14 23
52 15 7
52 16 40
52 17 21
52 18 30
52 19 33
52 20 6
52 21 21
52 22 17
52 23 45
52 24 19
52 25 12
52 26 36
52 27 30
52 28 7
52 29 30
52 30 26
52 31 26
52 32 31
52 33 32
52 34 9
52 35 16
52 36 27
52 37 26
52 38 14
52 39 14
52 40 22
52 41 14
52 42 3
52 43 34
52 44 12
52 45 1
52 46 6
52 47 25
52 48 18
52 49 6
52 50 46
52 51 23
53 0 30
53 1 29
53 2 18
53 3 32
53 4 15
53 5 21
53 6 39
53 7 45
53 8 42
53 9 36
53 10 10
53 11 16
53 12 24
53 13 3
53 14 26
53 15 45
53 16 12
53 17 40
53 18 33
53 19 31
53 20 10
53 21 28
53 22 12
53 23 24
53 24 31
53 25 20
53 26 24
53 27 38
53 28 21
53 29 19
53 30 8
53 31 20
53 32 20
53 33 10
53 34 31
53 35 25
53 36 28
53 37 16
53 38 36
53 39 38
53 40 11
53 41 21
53 42 45
53 43 47
53 44 10
53 45 8
53 46 45
53 47 20
53 48 17
53 49 42
53 50 13
53 51 29
53 52 20
54 0 45
54 1 22
54 2 2
54 3 47
54 4 14
54 5 35
54 6 5
54 7 32
54 8 44
54 9 4
54 10 26
54 11 45
54 12 15
54 13 35
54 14 36
54 15 2
54 16 24
54 17 9
54 18 3
54 19 13
54 20 3
54 21 28
54 22 30
54 23 41
54 24 32
54 25 13
54 26 42
54 27 20
54 28 8
54 29 15
54 30 9
54 31 3
54 32 20
54 33 27
54 34 20
54 35 18
54 36 8
54 37 2
54 38 37
54 39 27
54 40 39
54 41 31
54 42 39
54 43 10
54 44 37
54 45 17
54 46 24
54 47 31
54 48 46
54 49 19
54 50 36
54 51 20
54 52 15
54 53 15
